letting n =  10
letting blocks =  [[1, 2], [1, 3], [1, 9], [1, 10], [2, 2], [2, 5], [2, 7], [2, 10], [3, 1], [3, 6], [3, 7], [3, 9], [3, 10], [4, 1], [4, 2], [4, 3], [4, 4], [4, 8], [4, 9], [5, 2], [5, 6], [5, 10], [6, 1], [6, 5], [6, 7], [7, 1], [7, 2], [7, 4], [7, 10], [8, 1], [8, 4], [8, 6], [8, 8], [8, 9], [8, 10], [9, 3], [9, 6], [9, 8], [10, 1], [10, 2], [10, 7], [10, 8]]
